1 -1 0
1 -2 0
1 -3 0
1 -4 0
1 -5 0
1 -6 0
1 -7 0
1 -8 0
1 -9 0
1 -10 0
h 25 0
h -25 26 0
h 10 26 0
h -25 10 27 0
h 7 28 0
h 6 28 0
h 7 6 29 0
h 1 28 0
h 7 1 29 0
h 6 1 29 0
h 7 6 1 30 0
h -26 31 0
h -27 32 0
h -28 31 0
h -29 32 0
h -30 33 0
h -26 -28 32 0
h -26 -29 33 0
h -26 -30 34 0
h -27 -28 33 0
h -27 -29 34 0
h -27 -30 35 0
h -13 36 0
h -12 36 0
h -13 -12 37 0
h -36 38 0
h -37 39 0
h -32 38 0
h -34 39 0
h -36 -32 39 0
h -36 -34 40 0
h -37 -32 40 0
h -40 0
h 41 0
h -41 42 0
h -10 42 0
h -41 -10 43 0
h -7 44 0
h -6 44 0
h -7 -6 45 0
h -1 44 0
h -7 -1 45 0
h -6 -1 45 0
h -7 -6 -1 46 0
h -42 47 0
h -43 48 0
h -44 47 0
h -45 48 0
h -46 49 0
h -42 -44 48 0
h -42 -45 49 0
h -42 -46 50 0
h -43 -44 49 0
h -43 -45 50 0
h -43 -46 51 0
h 13 52 0
h 12 52 0
h 13 12 53 0
h -52 54 0
h -53 55 0
h -48 54 0
h -50 55 0
h -52 -48 55 0
h -52 -50 56 0
h -53 -48 56 0
h -56 0
h 57 0
h 9 58 0
h 8 58 0
h 9 8 59 0
h 7 60 0
h 6 60 0
h 7 6 61 0
h 2 60 0
h 7 2 61 0
h 6 2 61 0
h 7 6 2 62 0
h -58 63 0
h -59 64 0
h -60 63 0
h -61 64 0
h -62 65 0
h -58 -60 64 0
h -58 -61 65 0
h -58 -62 66 0
h -59 -60 65 0
h -59 -61 66 0
h -59 -62 67 0
h -16 68 0
h -15 68 0
h -16 -15 69 0
h -68 70 0
h -69 71 0
h -64 70 0
h -66 71 0
h -68 -64 71 0
h -68 -66 72 0
h -69 -64 72 0
h -72 0
h 73 0
h -73 74 0
h -9 74 0
h -73 -9 75 0
h -8 74 0
h -73 -8 75 0
h -9 -8 75 0
h -73 -9 -8 76 0
h -7 77 0
h -6 77 0
h -7 -6 78 0
h -2 77 0
h -7 -2 78 0
h -6 -2 78 0
h -7 -6 -2 79 0
h -74 80 0
h -75 81 0
h -76 82 0
h -77 80 0
h -78 81 0
h -79 82 0
h -74 -77 81 0
h -74 -78 82 0
h -74 -79 83 0
h -75 -77 82 0
h -75 -78 83 0
h -75 -79 84 0
h -76 -77 83 0
h -76 -78 84 0
h -76 -79 85 0
h -85 0
h 16 86 0
h 15 86 0
h 16 15 87 0
h -86 88 0
h -87 89 0
h -81 88 0
h -83 89 0
h -85 90 0
h -86 -81 89 0
h -86 -83 90 0
h -87 -81 90 0
h -90 0
h 91 0
h 10 92 0
h 7 92 0
h 10 7 93 0
h 3 92 0
h 10 3 93 0
h 7 3 93 0
h 10 7 3 94 0
h -18 95 0
h -93 95 0
h -18 -93 96 0
h -96 0
h 97 0
h -10 98 0
h -7 98 0
h -10 -7 99 0
h -3 98 0
h -10 -3 99 0
h -7 -3 99 0
h -10 -7 -3 100 0
h -97 101 0
h -98 101 0
h -99 102 0
h -100 103 0
h -97 -98 102 0
h -97 -99 103 0
h -97 -100 104 0
h -104 0
h 18 105 0
h -102 105 0
h -104 106 0
h 18 -102 106 0
h -106 0
h 107 0
h -107 108 0
h 10 108 0
h -107 10 109 0
h 7 110 0
h 6 110 0
h 7 6 111 0
h 4 110 0
h 7 4 111 0
h 6 4 111 0
h 7 6 4 112 0
h -108 113 0
h -109 114 0
h -110 113 0
h -111 114 0
h -112 115 0
h -108 -110 114 0
h -108 -111 115 0
h -108 -112 116 0
h -109 -110 115 0
h -109 -111 116 0
h -109 -112 117 0
h -21 118 0
h -20 118 0
h -21 -20 119 0
h -118 120 0
h -119 121 0
h -114 120 0
h -116 121 0
h -118 -114 121 0
h -118 -116 122 0
h -119 -114 122 0
h -122 0
h 123 0
h -123 124 0
h -10 124 0
h -123 -10 125 0
h -7 126 0
h -6 126 0
h -7 -6 127 0
h -4 126 0
h -7 -4 127 0
h -6 -4 127 0
h -7 -6 -4 128 0
h -124 129 0
h -125 130 0
h -126 129 0
h -127 130 0
h -128 131 0
h -124 -126 130 0
h -124 -127 131 0
h -124 -128 132 0
h -125 -126 131 0
h -125 -127 132 0
h -125 -128 133 0
h 21 134 0
h 20 134 0
h 21 20 135 0
h -134 136 0
h -135 137 0
h -130 136 0
h -132 137 0
h -134 -130 137 0
h -134 -132 138 0
h -135 -130 138 0
h -138 0
h 139 0
h 10 140 0
h 9 140 0
h 10 9 141 0
h 8 142 0
h 6 142 0
h 8 6 143 0
h 5 142 0
h 8 5 143 0
h 6 5 143 0
h 8 6 5 144 0
h -140 145 0
h -141 146 0
h -142 145 0
h -143 146 0
h -144 147 0
h -140 -142 146 0
h -140 -143 147 0
h -140 -144 148 0
h -141 -142 147 0
h -141 -143 148 0
h -141 -144 149 0
h -24 150 0
h -23 150 0
h -24 -23 151 0
h -150 152 0
h -151 153 0
h -146 152 0
h -148 153 0
h -150 -146 153 0
h -150 -148 154 0
h -151 -146 154 0
h -154 0
h 155 0
h -155 156 0
h -10 156 0
h -155 -10 157 0
h -9 156 0
h -155 -9 157 0
h -10 -9 157 0
h -155 -10 -9 158 0
h -8 159 0
h -6 159 0
h -8 -6 160 0
h -5 159 0
h -8 -5 160 0
h -6 -5 160 0
h -8 -6 -5 161 0
h -156 162 0
h -157 163 0
h -158 164 0
h -159 162 0
h -160 163 0
h -161 164 0
h -156 -159 163 0
h -156 -160 164 0
h -156 -161 165 0
h -157 -159 164 0
h -157 -160 165 0
h -157 -161 166 0
h -158 -159 165 0
h -158 -160 166 0
h -158 -161 167 0
h -167 0
h 24 168 0
h 23 168 0
h 24 23 169 0
h -168 170 0
h -169 171 0
h -163 170 0
h -165 171 0
h -167 172 0
h -168 -163 171 0
h -168 -165 172 0
h -169 -163 172 0
h -172 0
h -13 12 0
h -16 15 0
h -21 20 0
h -24 23 0
h 1 2 3 4 5 6 7 8 9 10 0
